SECTION Graph
Nodes 338
Edges 541
E 1 2 5
E 2 3 5
E 3 4 5
E 4 5 5
E 5 6 5
E 6 7 5
E 8 9 5
E 10 11 5
E 11 12 5
E 12 13 5
E 13 14 5
E 14 15 5
E 15 16 5
E 16 17 5
E 17 18 5
E 18 19 5
E 19 20 5
E 20 21 5
E 21 22 5
E 22 23 5
E 1 27 13
E 5 28 13
E 6 29 13
E 7 30 13
E 8 32 13
E 9 33 13
E 10 34 13
E 12 35 13
E 14 36 13
E 15 37 13
E 16 38 13
E 17 39 13
E 18 40 13
E 19 41 13
E 20 42 13
E 21 43 13
E 22 44 13
E 23 45 13
E 24 46 13
E 25 47 13
E 26 48 13
E 28 29 5
E 29 30 5
E 30 31 5
E 31 32 5
E 32 33 5
E 36 37 5
E 37 38 5
E 38 39 5
E 39 40 5
E 40 41 5
E 41 42 5
E 42 43 5
E 43 44 5
E 44 45 5
E 27 49 13
E 28 53 13
E 30 54 13
E 31 55 13
E 32 56 13
E 33 57 13
E 34 59 13
E 35 60 13
E 36 61 13
E 37 62 13
E 38 63 13
E 39 64 13
E 40 65 13
E 43 68 13
E 44 69 13
E 45 70 13
E 46 72 13
E 47 74 13
E 48 76 13
E 49 50 5
E 50 51 5
E 51 52 5
E 52 53 5
E 54 55 5
E 55 56 5
E 56 57 5
E 57 58 5
E 58 59 5
E 61 62 5
E 62 63 5
E 63 64 5
E 64 65 5
E 65 66 5
E 66 67 5
E 67 68 5
E 68 69 5
E 69 70 5
E 70 71 5
E 71 72 5
E 72 73 5
E 73 74 5
E 74 75 5
E 75 76 5
E 49 77 13
E 50 78 13
E 51 79 13
E 52 80 13
E 53 81 13
E 54 82 13
E 55 83 13
E 57 84 13
E 58 85 13
E 59 86 13
E 60 88 13
E 61 90 13
E 65 91 13
E 66 92 13
E 67 93 13
E 68 94 13
E 69 95 13
E 70 96 13
E 71 97 13
E 72 98 13
E 73 99 13
E 74 100 13
E 75 101 13
E 76 102 13
E 77 78 5
E 78 79 5
E 79 80 5
E 80 81 5
E 82 83 5
E 84 85 5
E 85 86 5
E 86 87 5
E 87 88 5
E 88 89 5
E 89 90 5
E 91 92 5
E 92 93 5
E 93 94 5
E 94 95 5
E 95 96 5
E 96 97 5
E 97 98 5
E 98 99 5
E 99 100 5
E 100 101 5
E 101 102 5
E 77 103 13
E 81 104 13
E 82 106 13
E 83 107 13
E 84 108 13
E 86 109 13
E 87 110 13
E 88 111 13
E 89 112 13
E 90 113 13
E 91 117 13
E 92 118 13
E 93 119 13
E 94 120 13
E 98 121 13
E 99 122 13
E 100 123 13
E 101 124 13
E 102 125 13
E 104 105 5
E 105 106 5
E 106 107 5
E 109 110 5
E 110 111 5
E 111 112 5
E 112 113 5
E 113 114 5
E 114 115 5
E 115 116 5
E 116 117 5
E 117 118 5
E 118 119 5
E 119 120 5
E 121 122 5
E 122 123 5
E 123 124 5
E 124 125 5
E 103 126 13
E 104 130 13
E 105 131 13
E 106 132 13
E 107 133 13
E 108 135 13
E 109 136 13
E 110 137 13
E 111 138 13
E 112 139 13
E 113 140 13
E 114 141 13
E 115 142 13
E 116 143 13
E 117 144 13
E 118 145 13
E 120 146 13
E 121 150 13
E 123 151 13
E 124 152 13
E 125 153 13
E 126 127 5
E 127 128 5
E 128 129 5
E 129 130 5
E 130 131 5
E 131 132 5
E 132 133 5
E 133 134 5
E 134 135 5
E 136 137 5
E 137 138 5
E 138 139 5
E 139 140 5
E 140 141 5
E 141 142 5
E 142 143 5
E 143 144 5
E 144 145 5
E 146 147 5
E 147 148 5
E 148 149 5
E 149 150 5
E 151 152 5
E 152 153 5
E 126 154 13
E 127 155 13
E 128 156 13
E 129 157 13
E 130 158 13
E 131 159 13
E 132 160 13
E 133 161 13
E 134 162 13
E 135 163 13
E 136 165 13
E 140 166 13
E 144 167 13
E 145 168 13
E 146 169 13
E 147 170 13
E 148 171 13
E 149 172 13
E 150 173 13
E 151 174 13
E 154 155 5
E 155 156 5
E 156 157 5
E 157 158 5
E 158 159 5
E 159 160 5
E 160 161 5
E 161 162 5
E 162 163 5
E 163 164 5
E 164 165 5
E 167 168 5
E 169 170 5
E 170 171 5
E 171 172 5
E 172 173 5
E 174 175 5
E 175 176 5
E 154 177 13
E 155 178 13
E 156 179 13
E 157 180 13
E 158 181 13
E 159 182 13
E 160 183 13
E 161 184 13
E 162 185 13
E 163 186 13
E 164 187 13
E 165 188 13
E 166 192 13
E 167 196 13
E 168 197 13
E 169 199 13
E 170 200 13
E 171 201 13
E 172 202 13
E 173 203 13
E 174 205 13
E 175 206 13
E 176 207 13
E 177 178 5
E 178 179 5
E 179 180 5
E 180 181 5
E 181 182 5
E 182 183 5
E 183 184 5
E 184 185 5
E 185 186 5
E 186 187 5
E 187 188 5
E 188 189 5
E 189 190 5
E 190 191 5
E 191 192 5
E 192 193 5
E 193 194 5
E 194 195 5
E 195 196 5
E 196 197 5
E 197 198 5
E 198 199 5
E 199 200 5
E 200 201 5
E 201 202 5
E 202 203 5
E 203 204 5
E 204 205 5
E 205 206 5
E 206 207 5
E 177 208 13
E 181 209 13
E 182 210 13
E 183 211 13
E 184 212 13
E 185 213 13
E 186 214 13
E 187 215 13
E 188 216 13
E 189 217 13
E 190 218 13
E 191 219 13
E 192 220 13
E 193 221 13
E 194 222 13
E 195 223 13
E 196 224 13
E 197 225 13
E 198 226 13
E 199 227 13
E 200 228 13
E 201 229 13
E 203 230 13
E 204 231 13
E 205 232 13
E 207 233 13
E 209 210 5
E 210 211 5
E 211 212 5
E 212 213 5
E 213 214 5
E 214 215 5
E 215 216 5
E 216 217 5
E 217 218 5
E 218 219 5
E 219 220 5
E 220 221 5
E 221 222 5
E 222 223 5
E 223 224 5
E 224 225 5
E 225 226 5
E 226 227 5
E 227 228 5
E 228 229 5
E 230 231 5
E 231 232 5
E 208 234 13
E 209 238 13
E 210 239 13
E 212 240 13
E 213 241 13
E 214 242 13
E 215 243 13
E 216 244 13
E 217 245 13
E 218 246 13
E 220 247 13
E 221 248 13
E 222 249 13
E 223 250 13
E 224 251 13
E 225 252 13
E 226 253 13
E 227 254 13
E 228 255 13
E 229 256 13
E 230 257 13
E 232 258 13
E 233 260 13
E 234 235 5
E 235 236 5
E 236 237 5
E 237 238 5
E 238 239 5
E 240 241 5
E 241 242 5
E 242 243 5
E 243 244 5
E 244 245 5
E 245 246 5
E 247 248 5
E 248 249 5
E 249 250 5
E 250 251 5
E 251 252 5
E 252 253 5
E 253 254 5
E 254 255 5
E 255 256 5
E 258 259 5
E 259 260 5
E 234 261 13
E 235 262 13
E 236 263 13
E 237 264 13
E 238 265 13
E 239 266 13
E 240 267 13
E 241 268 13
E 242 269 13
E 243 270 13
E 244 271 13
E 245 272 13
E 246 273 13
E 247 274 13
E 251 275 13
E 252 276 13
E 253 277 13
E 254 278 13
E 255 279 13
E 256 280 13
E 257 282 13
E 258 283 13
E 259 284 13
E 260 285 13
E 261 262 5
E 262 263 5
E 263 264 5
E 264 265 5
E 265 266 5
E 267 268 5
E 268 269 5
E 269 270 5
E 270 271 5
E 271 272 5
E 272 273 5
E 275 276 5
E 276 277 5
E 277 278 5
E 278 279 5
E 279 280 5
E 280 281 5
E 281 282 5
E 283 284 5
E 284 285 5
E 261 286 13
E 262 287 13
E 264 288 13
E 265 289 13
E 266 290 13
E 267 292 13
E 268 293 13
E 269 294 13
E 273 295 13
E 274 297 13
E 275 301 13
E 279 302 13
E 280 303 13
E 281 304 13
E 282 305 13
E 283 307 13
E 284 308 13
E 285 309 13
E 286 287 5
E 288 289 5
E 289 290 5
E 290 291 5
E 291 292 5
E 292 293 5
E 293 294 5
E 295 296 5
E 296 297 5
E 297 298 5
E 298 299 5
E 299 300 5
E 300 301 5
E 302 303 5
E 303 304 5
E 304 305 5
E 305 306 5
E 306 307 5
E 307 308 5
E 308 309 5
E 286 310 13
E 287 311 13
E 288 312 13
E 289 313 13
E 290 314 13
E 291 315 13
E 292 316 13
E 293 317 13
E 294 318 13
E 295 322 13
E 296 323 13
E 297 324 13
E 298 325 13
E 299 326 13
E 300 327 13
E 301 328 13
E 302 332 13
E 303 333 13
E 305 334 13
E 306 335 13
E 307 336 13
E 308 337 13
E 309 338 13
E 310 311 5
E 312 313 5
E 313 314 5
E 314 315 5
E 315 316 5
E 316 317 5
E 317 318 5
E 318 319 5
E 319 320 5
E 320 321 5
E 321 322 5
E 322 323 5
E 323 324 5
E 324 325 5
E 325 326 5
E 326 327 5
E 327 328 5
E 328 329 5
E 329 330 5
E 330 331 5
E 331 332 5
E 332 333 5
E 334 335 5
E 335 336 5
E 336 337 5
E 337 338 5
END

SECTION Terminals
Terminals 11
T 50
T 114
T 127
T 147
T 189
T 193
T 235
T 259
T 298
T 319
T 329
END

EOF
